(declare-fun x () (_ FloatingPoint 11 53))
(declare-fun y () (_ FloatingPoint 11 53))
(assert (let ((.def_19 (fp.leq (fp #b0 #b00000000000 #b0000000000000000000000000000000000000000000000000000) x)))
.def_19))
(assert (let ((.def_20 (fp.leq x (fp #b0 #b10000000010 #b0100000000000000000000000000000000000000000000000000))))
.def_20))
(assert (let ((.def_22 (fp.mul RNE x x)))
(let ((.def_23 (fp.mul RNE x .def_22)))
(let ((.def_24 (fp.mul RNE x .def_23)))
(let ((.def_25 (fp.mul RNE x .def_24)))
(let ((.def_26 (fp.eq y .def_25)))
.def_26))))))
(assert (let ((.def_31 (fp.lt (fp #b0 #b10000001111 #b1000011010100000000000000000000000000000000000000000) y)))
.def_31))
(check-sat)
